Minimize
 obj: 0 X_0_1
Subject To
 out_0:
  + 1 X_0_1 + 1 X_0_2 + 1 X_0_3 + 1 X_0_4 + 1 X_0_5 + 1 X_0_6 + 1 X_0_7 + 1 X_0_8
  + 1 X_0_9
  = 1
 in_0:
  + 1 X_1_0 + 1 X_2_0 + 1 X_3_0 + 1 X_4_0 + 1 X_5_0 + 1 X_6_0 + 1 X_7_0 + 1 X_8_0
  + 1 X_9_0
  = 1
 out_1:
  + 1 X_1_0 + 1 X_1_2 + 1 X_1_3 + 1 X_1_4 + 1 X_1_5 + 1 X_1_6 + 1 X_1_7 + 1 X_1_8
  + 1 X_1_9
  = 1
 in_1:
  + 1 X_0_1 + 1 X_2_1 + 1 X_3_1 + 1 X_4_1 + 1 X_5_1 + 1 X_6_1 + 1 X_7_1 + 1 X_8_1
  + 1 X_9_1
  = 1
 out_2:
  + 1 X_2_0 + 1 X_2_1 + 1 X_2_3 + 1 X_2_4 + 1 X_2_5 + 1 X_2_6 + 1 X_2_7 + 1 X_2_8
  + 1 X_2_9
  = 1
 in_2:
  + 1 X_0_2 + 1 X_1_2 + 1 X_3_2 + 1 X_4_2 + 1 X_5_2 + 1 X_6_2 + 1 X_7_2 + 1 X_8_2
  + 1 X_9_2
  = 1
 out_3:
  + 1 X_3_0 + 1 X_3_1 + 1 X_3_2 + 1 X_3_4 + 1 X_3_5 + 1 X_3_6 + 1 X_3_7 + 1 X_3_8
  + 1 X_3_9
  = 1
 in_3:
  + 1 X_0_3 + 1 X_1_3 + 1 X_2_3 + 1 X_4_3 + 1 X_5_3 + 1 X_6_3 + 1 X_7_3 + 1 X_8_3
  + 1 X_9_3
  = 1
 out_4:
  + 1 X_4_0 + 1 X_4_1 + 1 X_4_2 + 1 X_4_3 + 1 X_4_5 + 1 X_4_6 + 1 X_4_7 + 1 X_4_8
  + 1 X_4_9
  = 1
 in_4:
  + 1 X_0_4 + 1 X_1_4 + 1 X_2_4 + 1 X_3_4 + 1 X_5_4 + 1 X_6_4 + 1 X_7_4 + 1 X_8_4
  + 1 X_9_4
  = 1
 out_5:
  + 1 X_5_0 + 1 X_5_1 + 1 X_5_2 + 1 X_5_3 + 1 X_5_4 + 1 X_5_6 + 1 X_5_7 + 1 X_5_8
  + 1 X_5_9
  = 1
 in_5:
  + 1 X_0_5 + 1 X_1_5 + 1 X_2_5 + 1 X_3_5 + 1 X_4_5 + 1 X_6_5 + 1 X_7_5 + 1 X_8_5
  + 1 X_9_5
  = 1
 out_6:
  + 1 X_6_0 + 1 X_6_1 + 1 X_6_2 + 1 X_6_3 + 1 X_6_4 + 1 X_6_5 + 1 X_6_7 + 1 X_6_8
  + 1 X_6_9
  = 1
 in_6:
  + 1 X_0_6 + 1 X_1_6 + 1 X_2_6 + 1 X_3_6 + 1 X_4_6 + 1 X_5_6 + 1 X_7_6 + 1 X_8_6
  + 1 X_9_6
  = 1
 out_7:
  + 1 X_7_0 + 1 X_7_1 + 1 X_7_2 + 1 X_7_3 + 1 X_7_4 + 1 X_7_5 + 1 X_7_6 + 1 X_7_8
  + 1 X_7_9
  = 1
 in_7:
  + 1 X_0_7 + 1 X_1_7 + 1 X_2_7 + 1 X_3_7 + 1 X_4_7 + 1 X_5_7 + 1 X_6_7 + 1 X_8_7
  + 1 X_9_7
  = 1
 out_8:
  + 1 X_8_0 + 1 X_8_1 + 1 X_8_2 + 1 X_8_3 + 1 X_8_4 + 1 X_8_5 + 1 X_8_6 + 1 X_8_7
  + 1 X_8_9
  = 1
 in_8:
  + 1 X_0_8 + 1 X_1_8 + 1 X_2_8 + 1 X_3_8 + 1 X_4_8 + 1 X_5_8 + 1 X_6_8 + 1 X_7_8
  + 1 X_9_8
  = 1
 out_9:
  + 1 X_9_0 + 1 X_9_1 + 1 X_9_2 + 1 X_9_3 + 1 X_9_4 + 1 X_9_5 + 1 X_9_6 + 1 X_9_7
  + 1 X_9_8
  = 1
 in_9:
  + 1 X_0_9 + 1 X_1_9 + 1 X_2_9 + 1 X_3_9 + 1 X_4_9 + 1 X_5_9 + 1 X_6_9 + 1 X_7_9
  + 1 X_8_9
  = 1
 mtz_1_2:
  + 1 U1 - 1 U2 + 9 X_1_2
  <= 8
 mtz_1_3:
  + 1 U1 - 1 U3 + 9 X_1_3
  <= 8
 mtz_1_4:
  + 1 U1 - 1 U4 + 9 X_1_4
  <= 8
 mtz_1_5:
  + 1 U1 - 1 U5 + 9 X_1_5
  <= 8
 mtz_1_6:
  + 1 U1 - 1 U6 + 9 X_1_6
  <= 8
 mtz_1_7:
  + 1 U1 - 1 U7 + 9 X_1_7
  <= 8
 mtz_1_8:
  + 1 U1 - 1 U8 + 9 X_1_8
  <= 8
 mtz_1_9:
  + 1 U1 - 1 U9 + 9 X_1_9
  <= 8
 mtz_2_1:
  + 1 U2 - 1 U1 + 9 X_2_1
  <= 8
 mtz_2_3:
  + 1 U2 - 1 U3 + 9 X_2_3
  <= 8
 mtz_2_4:
  + 1 U2 - 1 U4 + 9 X_2_4
  <= 8
 mtz_2_5:
  + 1 U2 - 1 U5 + 9 X_2_5
  <= 8
 mtz_2_6:
  + 1 U2 - 1 U6 + 9 X_2_6
  <= 8
 mtz_2_7:
  + 1 U2 - 1 U7 + 9 X_2_7
  <= 8
 mtz_2_8:
  + 1 U2 - 1 U8 + 9 X_2_8
  <= 8
 mtz_2_9:
  + 1 U2 - 1 U9 + 9 X_2_9
  <= 8
 mtz_3_1:
  + 1 U3 - 1 U1 + 9 X_3_1
  <= 8
 mtz_3_2:
  + 1 U3 - 1 U2 + 9 X_3_2
  <= 8
 mtz_3_4:
  + 1 U3 - 1 U4 + 9 X_3_4
  <= 8
 mtz_3_5:
  + 1 U3 - 1 U5 + 9 X_3_5
  <= 8
 mtz_3_6:
  + 1 U3 - 1 U6 + 9 X_3_6
  <= 8
 mtz_3_7:
  + 1 U3 - 1 U7 + 9 X_3_7
  <= 8
 mtz_3_8:
  + 1 U3 - 1 U8 + 9 X_3_8
  <= 8
 mtz_3_9:
  + 1 U3 - 1 U9 + 9 X_3_9
  <= 8
 mtz_4_1:
  + 1 U4 - 1 U1 + 9 X_4_1
  <= 8
 mtz_4_2:
  + 1 U4 - 1 U2 + 9 X_4_2
  <= 8
 mtz_4_3:
  + 1 U4 - 1 U3 + 9 X_4_3
  <= 8
 mtz_4_5:
  + 1 U4 - 1 U5 + 9 X_4_5
  <= 8
 mtz_4_6:
  + 1 U4 - 1 U6 + 9 X_4_6
  <= 8
 mtz_4_7:
  + 1 U4 - 1 U7 + 9 X_4_7
  <= 8
 mtz_4_8:
  + 1 U4 - 1 U8 + 9 X_4_8
  <= 8
 mtz_4_9:
  + 1 U4 - 1 U9 + 9 X_4_9
  <= 8
 mtz_5_1:
  + 1 U5 - 1 U1 + 9 X_5_1
  <= 8
 mtz_5_2:
  + 1 U5 - 1 U2 + 9 X_5_2
  <= 8
 mtz_5_3:
  + 1 U5 - 1 U3 + 9 X_5_3
  <= 8
 mtz_5_4:
  + 1 U5 - 1 U4 + 9 X_5_4
  <= 8
 mtz_5_6:
  + 1 U5 - 1 U6 + 9 X_5_6
  <= 8
 mtz_5_7:
  + 1 U5 - 1 U7 + 9 X_5_7
  <= 8
 mtz_5_8:
  + 1 U5 - 1 U8 + 9 X_5_8
  <= 8
 mtz_5_9:
  + 1 U5 - 1 U9 + 9 X_5_9
  <= 8
 mtz_6_1:
  + 1 U6 - 1 U1 + 9 X_6_1
  <= 8
 mtz_6_2:
  + 1 U6 - 1 U2 + 9 X_6_2
  <= 8
 mtz_6_3:
  + 1 U6 - 1 U3 + 9 X_6_3
  <= 8
 mtz_6_4:
  + 1 U6 - 1 U4 + 9 X_6_4
  <= 8
 mtz_6_5:
  + 1 U6 - 1 U5 + 9 X_6_5
  <= 8
 mtz_6_7:
  + 1 U6 - 1 U7 + 9 X_6_7
  <= 8
 mtz_6_8:
  + 1 U6 - 1 U8 + 9 X_6_8
  <= 8
 mtz_6_9:
  + 1 U6 - 1 U9 + 9 X_6_9
  <= 8
 mtz_7_1:
  + 1 U7 - 1 U1 + 9 X_7_1
  <= 8
 mtz_7_2:
  + 1 U7 - 1 U2 + 9 X_7_2
  <= 8
 mtz_7_3:
  + 1 U7 - 1 U3 + 9 X_7_3
  <= 8
 mtz_7_4:
  + 1 U7 - 1 U4 + 9 X_7_4
  <= 8
 mtz_7_5:
  + 1 U7 - 1 U5 + 9 X_7_5
  <= 8
 mtz_7_6:
  + 1 U7 - 1 U6 + 9 X_7_6
  <= 8
 mtz_7_8:
  + 1 U7 - 1 U8 + 9 X_7_8
  <= 8
 mtz_7_9:
  + 1 U7 - 1 U9 + 9 X_7_9
  <= 8
 mtz_8_1:
  + 1 U8 - 1 U1 + 9 X_8_1
  <= 8
 mtz_8_2:
  + 1 U8 - 1 U2 + 9 X_8_2
  <= 8
 mtz_8_3:
  + 1 U8 - 1 U3 + 9 X_8_3
  <= 8
 mtz_8_4:
  + 1 U8 - 1 U4 + 9 X_8_4
  <= 8
 mtz_8_5:
  + 1 U8 - 1 U5 + 9 X_8_5
  <= 8
 mtz_8_6:
  + 1 U8 - 1 U6 + 9 X_8_6
  <= 8
 mtz_8_7:
  + 1 U8 - 1 U7 + 9 X_8_7
  <= 8
 mtz_8_9:
  + 1 U8 - 1 U9 + 9 X_8_9
  <= 8
 mtz_9_1:
  + 1 U9 - 1 U1 + 9 X_9_1
  <= 8
 mtz_9_2:
  + 1 U9 - 1 U2 + 9 X_9_2
  <= 8
 mtz_9_3:
  + 1 U9 - 1 U3 + 9 X_9_3
  <= 8
 mtz_9_4:
  + 1 U9 - 1 U4 + 9 X_9_4
  <= 8
 mtz_9_5:
  + 1 U9 - 1 U5 + 9 X_9_5
  <= 8
 mtz_9_6:
  + 1 U9 - 1 U6 + 9 X_9_6
  <= 8
 mtz_9_7:
  + 1 U9 - 1 U7 + 9 X_9_7
  <= 8
 mtz_9_8:
  + 1 U9 - 1 U8 + 9 X_9_8
  <= 8
 obj1:
  + 1222 X_0_1 + 549 X_0_2 + 614 X_0_3 + 639 X_0_4 + 805 X_0_5 + 724 X_0_6 + 191 X_0_7 + 917 X_0_8
  + 1167 X_0_9 + 1222 X_1_0 + 708 X_1_2 + 814 X_1_3 + 891 X_1_4 + 670 X_1_5 + 497 X_1_6 + 1054 X_1_7
  + 372 X_1_8 + 104 X_1_9 + 549 X_2_0 + 708 X_2_1 + 221 X_2_3 + 314 X_2_4 + 580 X_2_5 + 245 X_2_6
  + 425 X_2_7 + 495 X_2_8 + 637 X_2_9 + 614 X_3_0 + 814 X_3_1 + 221 X_3_2 + 95 X_3_4 + 801 X_3_5
  + 434 X_3_6 + 552 X_3_7 + 682 X_3_8 + 725 X_3_9 + 639 X_4_0 + 891 X_4_1 + 314 X_4_2 + 95 X_4_3
  + 894 X_4_5 + 529 X_4_6 + 604 X_4_7 + 775 X_4_8 + 798 X_4_9 + 805 X_5_0 + 670 X_5_1 + 580 X_5_2
  + 801 X_5_3 + 894 X_5_4 + 408 X_5_6 + 615 X_5_7 + 306 X_5_8 + 686 X_5_9 + 724 X_6_0 + 497 X_6_1
  + 245 X_6_2 + 434 X_6_3 + 529 X_6_4 + 408 X_6_5 + 558 X_6_7 + 251 X_6_8 + 449 X_6_9 + 191 X_7_0
  + 1054 X_7_1 + 425 X_7_2 + 552 X_7_3 + 604 X_7_4 + 615 X_7_5 + 558 X_7_6 + 733 X_7_8 + 1007 X_7_9
  + 917 X_8_0 + 372 X_8_1 + 495 X_8_2 + 682 X_8_3 + 775 X_8_4 + 306 X_8_5 + 251 X_8_6 + 733 X_8_7
  + 379 X_8_9 + 1167 X_9_0 + 104 X_9_1 + 637 X_9_2 + 725 X_9_3 + 798 X_9_4 + 686 X_9_5 + 449 X_9_6
  + 1007 X_9_7 + 379 X_9_8
  <= 1
 obj2:
  + 693 X_0_1 + 751 X_0_2 + 762 X_0_3 + 908 X_0_4 + 787 X_0_5 + 691 X_0_6 + 652 X_0_7 + 609 X_0_8
  + 780 X_0_9 + 693 X_1_0 + 411 X_1_2 + 729 X_1_3 + 515 X_1_4 + 194 X_1_5 + 450 X_1_6 + 529 X_1_7
  + 453 X_1_8 + 88 X_1_9 + 751 X_2_0 + 411 X_2_1 + 1095 X_2_3 + 926 X_2_4 + 602 X_2_5 + 837 X_2_6
  + 190 X_2_7 + 816 X_2_8 + 452 X_2_9 + 762 X_3_0 + 729 X_3_1 + 1095 X_3_2 + 396 X_3_4 + 614 X_3_5
  + 285 X_3_6 + 1133 X_3_7 + 280 X_3_8 + 752 X_3_9 + 908 X_4_0 + 515 X_4_1 + 926 X_4_2 + 396 X_4_3
  + 332 X_4_5 + 223 X_4_6 + 1027 X_4_7 + 308 X_4_8 + 492 X_4_9 + 787 X_5_0 + 194 X_5_1 + 602 X_5_2
  + 614 X_5_3 + 332 X_5_4 + 330 X_5_6 + 723 X_5_7 + 367 X_5_8 + 160 X_5_9 + 691 X_6_0 + 450 X_6_1
  + 837 X_6_2 + 285 X_6_3 + 223 X_6_4 + 330 X_6_5 + 901 X_6_7 + 85 X_6_8 + 468 X_6_9 + 652 X_7_0
  + 529 X_7_1 + 190 X_7_2 + 1133 X_7_3 + 1027 X_7_4 + 723 X_7_5 + 901 X_7_6 + 863 X_7_8 + 590 X_7_9
  + 609 X_8_0 + 453 X_8_1 + 816 X_8_2 + 280 X_8_3 + 308 X_8_4 + 367 X_8_5 + 85 X_8_6 + 863 X_8_7
  + 486 X_8_9 + 780 X_9_0 + 88 X_9_1 + 452 X_9_2 + 752 X_9_3 + 492 X_9_4 + 160 X_9_5 + 468 X_9_6
  + 590 X_9_7 + 486 X_9_8
  <= 2
 obj3:
  + 581 X_0_1 + 371 X_0_2 + 719 X_0_3 + 539 X_0_4 + 170 X_0_5 + 203 X_0_6 + 614 X_0_7 + 184 X_0_8
  + 297 X_0_9 + 581 X_1_0 + 824 X_1_2 + 240 X_1_3 + 756 X_1_4 + 748 X_1_5 + 778 X_1_6 + 368 X_1_7
  + 450 X_1_8 + 831 X_1_9 + 371 X_2_0 + 824 X_2_1 + 1018 X_2_3 + 307 X_2_4 + 366 X_2_5 + 269 X_2_6
  + 961 X_2_7 + 544 X_2_8 + 144 X_2_9 + 719 X_3_0 + 240 X_3_1 + 1018 X_3_2 + 986 X_3_4 + 870 X_3_5
  + 922 X_3_6 + 236 X_3_7 + 550 X_3_8 + 1000 X_3_9 + 539 X_4_0 + 756 X_4_1 + 307 X_4_2 + 986 X_4_3
  + 614 X_4_5 + 537 X_4_6 + 1002 X_4_7 + 656 X_4_8 + 442 X_4_9 + 170 X_5_0 + 748 X_5_1 + 366 X_5_2
  + 870 X_5_3 + 614 X_5_4 + 101 X_5_6 + 736 X_5_7 + 319 X_5_8 + 239 X_5_9 + 203 X_6_0 + 778 X_6_1
  + 269 X_6_2 + 922 X_6_3 + 537 X_6_4 + 101 X_6_5 + 808 X_6_7 + 380 X_6_8 + 137 X_6_9 + 614 X_7_0
  + 368 X_7_1 + 961 X_7_2 + 236 X_7_3 + 1002 X_7_4 + 736 X_7_5 + 808 X_7_6 + 430 X_7_8 + 911 X_7_9
  + 184 X_8_0 + 450 X_8_1 + 544 X_8_2 + 550 X_8_3 + 656 X_8_4 + 319 X_8_5 + 380 X_8_6 + 430 X_8_7
  + 481 X_8_9 + 297 X_9_0 + 831 X_9_1 + 144 X_9_2 + 1000 X_9_3 + 442 X_9_4 + 239 X_9_5 + 137 X_9_6
  + 911 X_9_7 + 481 X_9_8
  <= 3
 obj4:
  + 197 X_0_1 + 992 X_0_2 + 513 X_0_3 + 80 X_0_4 + 477 X_0_5 + 473 X_0_6 + 71 X_0_7 + 801 X_0_8
  + 209 X_0_9 + 197 X_1_0 + 1167 X_1_2 + 702 X_1_3 + 189 X_1_4 + 617 X_1_5 + 667 X_1_6 + 233 X_1_7
  + 976 X_1_8 + 212 X_1_9 + 992 X_2_0 + 1167 X_2_1 + 495 X_2_3 + 977 X_2_4 + 581 X_2_5 + 551 X_2_6
  + 936 X_2_7 + 191 X_2_8 + 1003 X_2_9 + 513 X_3_0 + 702 X_3_1 + 495 X_3_2 + 516 X_3_4 + 283 X_3_5
  + 62 X_3_6 + 468 X_3_7 + 312 X_3_8 + 578 X_3_9 + 80 X_4_0 + 189 X_4_1 + 977 X_4_2 + 516 X_4_3
  + 436 X_4_5 + 485 X_4_6 + 52 X_4_7 + 786 X_4_8 + 130 X_4_9 + 477 X_5_0 + 617 X_5_1 + 581 X_5_2
  + 283 X_5_3 + 436 X_5_4 + 314 X_5_6 + 408 X_5_7 + 401 X_5_8 + 430 X_5_9 + 473 X_6_0 + 667 X_6_1
  + 551 X_6_2 + 62 X_6_3 + 485 X_6_4 + 314 X_6_5 + 435 X_6_7 + 371 X_6_8 + 559 X_6_9 + 71 X_7_0
  + 233 X_7_1 + 936 X_7_2 + 468 X_7_3 + 52 X_7_4 + 408 X_7_5 + 435 X_7_6 + 745 X_7_8 + 171 X_7_9
  + 801 X_8_0 + 976 X_8_1 + 191 X_8_2 + 312 X_8_3 + 786 X_8_4 + 401 X_8_5 + 371 X_8_6 + 745 X_8_7
  + 815 X_8_9 + 209 X_9_0 + 212 X_9_1 + 1003 X_9_2 + 578 X_9_3 + 130 X_9_4 + 430 X_9_5 + 559 X_9_6
  + 171 X_9_7 + 815 X_9_8
  <= 4
 obj5:
  + 577 X_0_1 + 593 X_0_2 + 465 X_0_3 + 972 X_0_4 + 295 X_0_5 + 377 X_0_6 + 323 X_0_7 + 470 X_0_8
  + 1025 X_0_9 + 577 X_1_0 + 565 X_1_2 + 543 X_1_3 + 601 X_1_4 + 467 X_1_5 + 280 X_1_6 + 556 X_1_7
  + 493 X_1_8 + 493 X_1_9 + 593 X_2_0 + 565 X_2_1 + 133 X_2_3 + 480 X_2_4 + 753 X_2_5 + 347 X_2_6
  + 286 X_2_7 + 888 X_2_8 + 1026 X_2_9 + 465 X_3_0 + 543 X_3_1 + 133 X_3_2 + 593 X_3_4 + 649 X_3_5
  + 282 X_3_6 + 152 X_3_7 + 797 X_3_8 + 1028 X_3_9 + 972 X_4_0 + 601 X_4_1 + 480 X_4_2 + 593 X_4_3
  + 1010 X_4_5 + 605 X_4_6 + 730 X_4_7 + 1082 X_4_8 + 857 X_4_9 + 295 X_5_0 + 467 X_5_1 + 753 X_5_2
  + 649 X_5_3 + 1010 X_5_4 + 428 X_5_6 + 545 X_5_7 + 174 X_5_8 + 813 X_5_9 + 377 X_6_0 + 280 X_6_1
  + 347 X_6_2 + 282 X_6_3 + 605 X_6_4 + 428 X_6_5 + 276 X_6_7 + 546 X_6_8 + 774 X_6_9 + 323 X_7_0
  + 556 X_7_1 + 286 X_7_2 + 152 X_7_3 + 730 X_7_4 + 545 X_7_5 + 276 X_7_6 + 707 X_7_8 + 1050 X_7_9
  + 470 X_8_0 + 493 X_8_1 + 888 X_8_2 + 797 X_8_3 + 1082 X_8_4 + 174 X_8_5 + 546 X_8_6 + 707 X_8_7
  + 727 X_8_9 + 1025 X_9_0 + 493 X_9_1 + 1026 X_9_2 + 1028 X_9_3 + 857 X_9_4 + 813 X_9_5 + 774 X_9_6
  + 1050 X_9_7 + 727 X_9_8
  <= 5
Bounds
 1 <= U1 <= 9
 1 <= U2 <= 9
 1 <= U3 <= 9
 1 <= U4 <= 9
 1 <= U5 <= 9
 1 <= U6 <= 9
 1 <= U7 <= 9
 1 <= U8 <= 9
 1 <= U9 <= 9
Binary
 X_0_1
 X_0_2
 X_0_3
 X_0_4
 X_0_5
 X_0_6
 X_0_7
 X_0_8
 X_0_9
 X_1_0
 X_1_2
 X_1_3
 X_1_4
 X_1_5
 X_1_6
 X_1_7
 X_1_8
 X_1_9
 X_2_0
 X_2_1
 X_2_3
 X_2_4
 X_2_5
 X_2_6
 X_2_7
 X_2_8
 X_2_9
 X_3_0
 X_3_1
 X_3_2
 X_3_4
 X_3_5
 X_3_6
 X_3_7
 X_3_8
 X_3_9
 X_4_0
 X_4_1
 X_4_2
 X_4_3
 X_4_5
 X_4_6
 X_4_7
 X_4_8
 X_4_9
 X_5_0
 X_5_1
 X_5_2
 X_5_3
 X_5_4
 X_5_6
 X_5_7
 X_5_8
 X_5_9
 X_6_0
 X_6_1
 X_6_2
 X_6_3
 X_6_4
 X_6_5
 X_6_7
 X_6_8
 X_6_9
 X_7_0
 X_7_1
 X_7_2
 X_7_3
 X_7_4
 X_7_5
 X_7_6
 X_7_8
 X_7_9
 X_8_0
 X_8_1
 X_8_2
 X_8_3
 X_8_4
 X_8_5
 X_8_6
 X_8_7
 X_8_9
 X_9_0
 X_9_1
 X_9_2
 X_9_3
 X_9_4
 X_9_5
 X_9_6
 X_9_7
 X_9_8
End
